(set-logic QF_SLIA)
(declare-fun var0 () String)
(assert (not (str.in_re var0 (re.++ ((_ re.loop 5 801) (re.++ (re.union (str.to_re "/") (re.union (str.to_re "m") (re.union (str.to_re "w*u") (str.to_re "J")))) (re.++ (re.union (str.to_re "o") (re.union (str.to_re "B") (re.union (str.to_re "egD") (str.to_re "T")))) (re.++ (re.union (str.to_re "m9C") (re.union (str.to_re "XJ0") (re.union (str.to_re "-") (str.to_re "WMM")))) (re.union (str.to_re "$-7") (re.union (str.to_re "U!L") (re.union (str.to_re "4|") (str.to_re ")")))))))) (re.++ ((_ re.loop 9 677) (re.++ (re.union (str.to_re "0pC") (re.union (str.to_re "\u0022lP") (re.union (str.to_re "CI") (str.to_re "F5G")))) (re.++ (re.union (str.to_re "&7=") (re.union (str.to_re "HIz") (re.union (str.to_re "oA-") (str.to_re "M")))) (re.++ (re.union (str.to_re "r") (re.union (str.to_re "O~") (re.union (str.to_re "wY") (str.to_re "P\u0022r")))) (re.union (str.to_re "]") (re.union (str.to_re "tK") (re.union (str.to_re "+=") (str.to_re "#U")))))))) (re.++ ((_ re.loop 17 568) (re.++ (re.union (str.to_re "|Q") (re.union (str.to_re "ZI") (re.union (str.to_re "WUG") (str.to_re "/")))) (re.++ (re.union (str.to_re "vC") (re.union (str.to_re "y\\") (re.union (str.to_re "D") (str.to_re "mC@")))) (re.++ (re.union (str.to_re "!") (re.union (str.to_re "Se") (re.union (str.to_re "?c1") (str.to_re "[q")))) (re.union (str.to_re "&d") (re.union (str.to_re "We") (re.union (str.to_re ">Ia") (str.to_re "9|")))))))) ((_ re.loop 7 630) (re.++ (re.union (str.to_re "3") (re.union (str.to_re "^Zy") (re.union (str.to_re "%(") (str.to_re "ON")))) (re.++ (re.union (str.to_re "sP\u0022") (re.union (str.to_re "o,") (re.union (str.to_re "9") (str.to_re "#V")))) (re.++ (re.union (str.to_re "o.+") (re.union (str.to_re "hx") (re.union (str.to_re "oH") (str.to_re "o")))) (re.union (str.to_re "-7") (re.union (str.to_re "/y") (re.union (str.to_re "'CC") (str.to_re "(3u"))))))))))))))
(assert (not (str.in_re var0 (re.++ ((_ re.loop 14 41) (re.++ (re.union (str.to_re "diP") (re.union (str.to_re "\\)") (re.union (str.to_re "-S`") (str.to_re "7HI")))) (re.++ (re.union (str.to_re "T<") (re.union (str.to_re "H") (re.union (str.to_re "@JU") (str.to_re "N'J")))) (re.++ (re.union (str.to_re "*") (re.union (str.to_re "Q") (re.union (str.to_re "RQ") (str.to_re "Fm")))) (re.union (str.to_re "q'") (re.union (str.to_re "A'k") (re.union (str.to_re "\\_G") (str.to_re "O")))))))) (re.++ ((_ re.loop 19 167) (re.++ (re.union (str.to_re "B") (re.union (str.to_re "8U") (re.union (str.to_re "a") (str.to_re "2h/")))) (re.++ (re.union (str.to_re "`m{") (re.union (str.to_re "`") (re.union (str.to_re "vZ") (str.to_re "+w")))) (re.++ (re.union (str.to_re "G") (re.union (str.to_re "4U") (re.union (str.to_re "l") (str.to_re "_Fn")))) (re.union (str.to_re "0") (re.union (str.to_re "o'B") (re.union (str.to_re "@\u0022") (str.to_re "5")))))))) (re.++ ((_ re.loop 11 161) (re.++ (re.union (str.to_re "Na") (re.union (str.to_re "'") (re.union (str.to_re "'gr") (str.to_re "_U")))) (re.++ (re.union (str.to_re "\\'") (re.union (str.to_re "ZR/") (re.union (str.to_re "+RH") (str.to_re "!<")))) (re.++ (re.union (str.to_re "TrN") (re.union (str.to_re "mI") (re.union (str.to_re "0HG") (str.to_re "{")))) (re.union (str.to_re "(") (re.union (str.to_re "P+") (re.union (str.to_re "&Zn") (str.to_re "S@")))))))) ((_ re.loop 14 143) (re.++ (re.union (str.to_re "+") (re.union (str.to_re "u") (re.union (str.to_re "5%") (str.to_re "mV")))) (re.++ (re.union (str.to_re "l1\u0022") (re.union (str.to_re "Rdq") (re.union (str.to_re "[") (str.to_re "'")))) (re.++ (re.union (str.to_re "FI") (re.union (str.to_re "ueC") (re.union (str.to_re "II") (str.to_re "'30")))) (re.union (str.to_re "]Y") (re.union (str.to_re "0") (re.union (str.to_re "oB&") (str.to_re ":[4"))))))))))))))
(assert (not (str.in_re var0 (re.++ (re.* re.allchar) (re.++ (re.union (str.to_re "<") (re.union (str.to_re ">") (re.union (str.to_re "'") (re.union (str.to_re "\u0022") (str.to_re "&"))))) (re.* re.allchar))))))
(assert (<= 50 (str.len var0)))
(check-sat)
(get-model)
